50

98 40 313
96 4 420
96 28 361
87 36 385
87 26 298
87 32 364
86 30 340
85 34 336
83 26 389
83 38 471
82 10 311
81 24 301
77 4 231
74 30 230
67 20 441
65 10 466
64 8 377
64 7 197
63 20 463
60 15 386
57 16 452
57 6 279
56 7 310
55 19 355
50 16 210
49 22 197
46 9 273
43 13 174
43 1 278
42 7 456
37 5 304
33 14 407
31 2 188
31 5 180
27 3 348
27 13 251
26 8 448
25 10 216
23 5 319
23 7 230
19 1 226
18 6 423
15 5 467
13 6 403
10 5 386
9 3 372
6 1 165
3 2 69
2 1 223
1 1 239
